r = [
0,103,46,16,13,30,23,131,32,111,55,0
];
p = [
0,28,28,8,14,12,4,29,9,12,4,0
];
e = [
0,3,8,16,13,7,14,3,20,15,1,0
];
d = [
0,131,74,24,27,42,83,184,41,123,59,210
];
d_bar = [
0,156,99,31,40,53,87,210,49,134,63,210
];
w = [
0,0.12,0.32,2.285714286,1,0.636363636,3.5,0.115384615,2.5,1.363636364,0.25,0
];
